Route #1: 1 18 45 19 25 19 26 10 40 13 27 1 
Route #2: 1 53 36 59 11 40 32 40 41 1 
Route #3: 1 36 39 36 55 20 36 47 35 1 
Route #4: 1 36 9 14 36 15 12 54 36 8 1 
Route #5: 1 33 51 19 50 19 56 19 4 1 
Route #6: 1 52 17 2 44 42 43 2 34 7 1 
Route #7: 1 3 2 24 57 2 23 29 2 1 
Route #8: 1 31 49 38 16 58 21 38 30 46 5 1 
Route #9: 1 6 38 60 37 38 48 22 38 28 1 
Cost 1014.0
